
--- Job bchfcnet.gms Start 02/08/22 12:00:10 34.3.0 rac355f3 WEX-WEI x86 64bit/MS Windows
--- Applying:
    C:\GAMS\34\gmsprmNT.txt
--- GAMS Parameters defined
    Input C:\Users\dekhi\Desktop\gamsworld\FCNetLib\test\bchfcnet.gms
    PageSize 0
    ScrDir C:\Users\dekhi\Desktop\gamsworld\FCNetLib\test\225a\
    SysDir C:\GAMS\34\
    LogOption 3
    ErrMsg 1
    ErrorLog 99
    IDE 1
    ResLim 3600
    LstTitleLeftAligned 1
Licensee: Eval License                                   S211214|0002AW-GEN
          Ostfalia Hochschule fuer angewandte Wissenschaften        DCE1645
          C:\Users\dekhi\Documents\GAMS\gamslice.txt
          License Admin: Mohamed Ali Dekhil, dekhil.medali@gmail.com       
          Evaluation license: Not for commercial or production use
GAMS 34.3.0   Copyright (C) 1987-2021 GAMS Development. All rights reserved
--- Starting compilation
--- bchfcnet.gms(34) 2 Mb
--- . decl.gms(15) 2 Mb
--- bchfcnet.gms(38) 2 Mb
--- . berlin.inc(2685) 3 Mb
--- bchfcnet.gms(67) 3 Mb
--- . equs.gms(20) 3 Mb
--- bchfcnet.gms(97) 3 Mb
--- call rm -f bchout_i.gdx startcut.txt startheur.txt cuthist.gdx agap.txt rgap.txt cntfail.txt
--- bchfcnet.gms(118) 3 Mb
--- Starting execution: elapsed 0:00:00.095
--- bchfcnet.gms(2743) 4 Mb
--- GDX File (execute_unload) C:\Users\dekhi\Desktop\gamsworld\FCNetLib\test\net.gdx
--- bchfcnet.gms(2834) 5 Mb
--- GDXin=C:\Users\dekhi\Desktop\gamsworld\FCNetLib\test\points\berlin.gdx
--- GDX File (execute_load) C:\Users\dekhi\Desktop\gamsworld\FCNetLib\test\points\berlin.gdx
--- Generating MIP model master
--- bchfcnet.gms(2838) 7 Mb
---   2,705 rows  5,305 columns  13,261 non-zeroes
---   2,652 discrete-columns
--- Executing CPLEX (Solvelink=2): elapsed 0:00:00.149

IBM ILOG CPLEX   34.3.0 rac355f3 Released Feb 25, 2021 WEI x86 64bit/MS Window

--- GAMS/Cplex Link licensed for continuous and discrete problems.

Reading parameter(s) from "C:\Users\dekhi\Desktop\gamsworld\FCNetLib\test\cplex.op2"
>>  mipstart 1
Finished reading from "C:\Users\dekhi\Desktop\gamsworld\FCNetLib\test\cplex.op2"

--- Space for names approximately 0.17 Mb
--- Use option 'names no' to turn use of names off
--- GMO memory 1.93 Mb (peak 1.97 Mb)
--- Dictionary memory 0.00 Mb
--- Cplex 20.1.0.0 link memory 0.13 Mb (peak 0.55 Mb)
--- Starting Cplex

Version identifier: 20.1.0.0 | 2020-11-10 | 9bedb6d68
CPXPARAM_Threads                                 1
CPXPARAM_MIP_Display                             4
CPXPARAM_TimeLimit                               3600
CPXPARAM_MIP_Tolerances_AbsMIPGap                0
CPXPARAM_MIP_Tolerances_MIPGap                   0
Generic callback                                 0x50
Processing 1 MIP starts.
MIP start 'm1' defined solution with objective 1044.0000.
1 of 1 MIP starts provided solutions.
MIP start 'm1' defined initial solution with objective 1044.0000.
Tried aggregator 1 time.
MIP Presolve eliminated 51 rows and 1 columns.
MIP Presolve added 102 rows and 0 columns.
Reduced MIP has 2755 rows, 5304 columns, and 10710 nonzeros.
Reduced MIP has 2652 binaries, 0 generals, 0 SOSs, and 0 indicators.
Presolve time = 0.01 sec. (72.30 ticks)
Probing time = 0.00 sec. (0.57 ticks)
Tried aggregator 1 time.
Detecting symmetries...
Reduced MIP has 2755 rows, 5304 columns, and 10710 nonzeros.
Reduced MIP has 2652 binaries, 0 generals, 0 SOSs, and 0 indicators.
Presolve time = 0.00 sec. (72.45 ticks)
Probing time = 0.00 sec. (0.57 ticks)
MIP emphasis: balance optimality and feasibility.
MIP search method: dynamic search.
Parallel mode: none, using 1 thread.
Tried aggregator 1 time.
LP Presolve eliminated 2601 rows and 2601 columns.
Aggregator did 51 substitutions.
Reduced LP has 103 rows, 2652 columns, and 5406 nonzeros.
Presolve time = 0.00 sec. (2.66 ticks)

Iteration log . . .
Iteration:     1   Dual objective     =            12.000000
Initializing dual steep norms . . .
Root relaxation solution time = 0.00 sec. (5.50 ticks)

        Nodes                                         Cuts/
   Node  Left     Objective  IInf  Best Integer    Best Bound    ItCnt     Gap

*     0+    0                         1044.0000        0.0000           100.00%
Found incumbent of value 1044.000000 after 0.03 sec. (158.97 ticks)
      0     0      130.0667    18     1044.0000      130.0667       54   87.54%
      0     0      638.2667    33     1044.0000      Cuts: 47      145   38.86%
      0     0      749.1686    46     1044.0000      Cuts: 65      205   28.24%
      0     0      804.6497    40     1044.0000      Cuts: 46      271   22.93%
      0     0      849.9035    76     1044.0000      Cuts: 43      354   18.59%
      0     0      865.7424    68     1044.0000      Cuts: 72      413   17.07%
Detecting symmetries...
      0     0      878.1970    53     1044.0000      Cuts: 56      460   15.88%
      0     0      909.0953    51     1044.0000      Cuts: 64      540   12.92%
      0     0      921.5724    76     1044.0000      Cuts: 58      601   11.73%
      0     0      931.8600    92     1044.0000      Cuts: 56      681   10.74%
      0     0      945.9224    94     1044.0000      Cuts: 56      791    9.39%
      0     0      967.7236    84     1044.0000      Cuts: 76      919    7.31%
      0     0      972.4274    86     1044.0000      Cuts: 48     1001    6.86%
      0     0      977.3915    91     1044.0000      Cuts: 49     1090    6.38%
      0     0      997.2157    83     1044.0000      Cuts: 66     1263    4.48%
      0     0     1004.1814    89     1044.0000      Cuts: 76     1398    3.81%
      0     0     1009.5088    78     1044.0000      Cuts: 67     1519    3.30%
      0     0     1013.5915    65     1044.0000      Cuts: 59     1586    2.91%
      0     0     1025.5411    54     1044.0000      Cuts: 52     1667    1.77%
      0     0     1031.6115    68     1044.0000      Cuts: 50     1749    1.19%
      0     0     1034.6223    65     1044.0000      Cuts: 44     1856    0.90%
      0     0     1037.0281    93     1044.0000      Cuts: 39     1980    0.67%
      0     0     1038.7266    48     1044.0000      Cuts: 51     2043    0.51%
      0     0     1039.0787    62     1044.0000      Cuts: 23     2091    0.47%
      0     0     1039.9634   100     1044.0000      Cuts: 43     2144    0.39%
      0     0     1040.5586    69     1044.0000      Cuts: 54     2217    0.33%
      0     0     1040.6580   104     1044.0000      Cuts: 31     2253    0.32%
      0     0     1040.8652    70     1044.0000      Cuts: 12     2418    0.30%
Detecting symmetries...

Repeating presolve.
Tried aggregator 2 times.
MIP Presolve eliminated 2536 rows and 4970 columns.
MIP Presolve added 2 rows and 0 columns.
MIP Presolve modified 63 coefficients.
Aggregator did 10 substitutions.
Reduced MIP has 211 rows, 324 columns, and 673 nonzeros.
Reduced MIP has 167 binaries, 0 generals, 0 SOSs, and 0 indicators.
Presolve time = 0.00 sec. (8.14 ticks)
Probing time = 0.00 sec. (0.05 ticks)
Tried aggregator 1 time.
Detecting symmetries...
MIP Presolve eliminated 1 rows and 0 columns.
MIP Presolve modified 8 coefficients.
Reduced MIP has 210 rows, 323 columns, and 671 nonzeros.
Reduced MIP has 166 binaries, 0 generals, 0 SOSs, and 0 indicators.
Presolve time = 0.00 sec. (0.67 ticks)
Represolve time = 0.03 sec. (46.41 ticks)
Probing time = 0.00 sec. (0.05 ticks)
Clique table members: 4.
MIP emphasis: balance optimality and feasibility.
MIP search method: dynamic search.
Parallel mode: none, using 1 thread.
Tried aggregator 1 time.
LP Presolve eliminated 2 rows and 0 columns.
Reduced LP has 393 rows, 323 columns, and 2448 nonzeros.
Presolve time = 0.00 sec. (0.29 ticks)
Initializing dual steep norms . . .

Iteration log . . .
Iteration:     1   Dual objective     =             0.000000
Iteration:    65   Dual objective     =           575.000000
Iteration:   127   Dual objective     =           971.235471
Iteration:   189   Dual objective     =          1029.139317
Iteration:   251   Dual objective     =          1037.536670
Iteration:   313   Dual objective     =          1039.418010
Iteration:   375   Dual objective     =          1040.921944
Initializing dual steep norms . . .
Root relaxation solution time = 0.01 sec. (9.28 ticks)

        Nodes                                         Cuts/
   Node  Left     Objective  IInf  Best Integer    Best Bound    ItCnt     Gap

*     0+    0                         1044.0000     1040.8652             0.30%
Found incumbent of value 1044.000000 after 3.84 sec. (5079.08 ticks)
      0     0     1040.9299    51     1044.0000     1040.9299     2802    0.29%
      0     0     1042.7427    43     1044.0000      Cuts: 55     2915    0.12%
      0     0        cutoff           1044.0000                   2936    0.00%
Elapsed time = 3.88 sec. (5109.18 ticks, tree = 0.01 MB, solutions = 1)

Cover cuts applied:  39
Implied bound cuts applied:  4
Flow cuts applied:  130
Mixed integer rounding cuts applied:  30
Flow path cuts applied:  1
Zero-half cuts applied:  5
Lift and project cuts applied:  8
Gomory fractional cuts applied:  4

Root node processing (before b&c):
  Real time             =    3.88 sec. (5109.32 ticks)
Sequential b&c:
  Real time             =    0.00 sec. (0.00 ticks)
                          ------------
Total (root+branch&cut) =    3.88 sec. (5109.32 ticks)

--- MIP status (101): integer optimal solution.
--- Cplex Time: 3.88sec (det. 5109.34 ticks)

--- Fixing integer variables and solving final LP...

Version identifier: 20.1.0.0 | 2020-11-10 | 9bedb6d68
CPXPARAM_Advance                                 2
CPXPARAM_Threads                                 1
CPXPARAM_MIP_Display                             4
CPXPARAM_TimeLimit                               3600
CPXPARAM_MIP_Tolerances_AbsMIPGap                0
CPXPARAM_MIP_Tolerances_MIPGap                   0
Tried aggregator 1 time.
LP Presolve eliminated 2704 rows and 5305 columns.
All rows and columns eliminated.
Presolve time = 0.00 sec. (1.80 ticks)

--- Fixed MIP status (1): optimal.
--- Cplex Time: 0.00sec (det. 3.04 ticks)


Proven optimal solution
MIP Solution:         1044.000000    (2936 iterations, 0 nodes)
Final Solve:          1044.000000    (0 iterations)

Best possible:        1044.000000
Absolute gap:            0.000000
Relative gap:            0.000000

--- Reading solution for model master
*** Status: Normal completion
--- Job bchfcnet.gms Stop 02/08/22 12:00:14 elapsed 0:00:04.086
